32      4       
16      14      15      15      
0       0       0       0       0       2       2       7       
3       0       1       0       12      1       3       
10      0       7       4       0       1       4       
4       0       0       1       15      1       5       
5       0       0       10      1       2       12      6       
5       5       5       0       0       1       8       
1       5       0       10      0       1       8       
3       12      0       0       14      1       9       
2       11      0       7       0       1       10      
10      0       0       6       14      1       11      
8       0       5       0       13      1       13      
5       16      0       0       7       1       13      
9       12      0       0       15      1       14      
7       0       1       0       1       1       15      
3       0       7       6       0       2       20      16      
7       0       10      7       0       2       23      17      
7       0       5       0       1       1       18      
6       6       0       6       0       1       19      
9       5       0       7       0       2       31      21      
6       7       8       0       0       2       31      22      
9       1       4       0       0       1       22      
5       0       14      0       6       2       30      24      
5       0       3       0       1       2       30      24      
7       0       0       14      1       1       25      
3       11      12      0       0       1       26      
2       3       0       6       0       1       27      
6       0       0       7       11      1       28      
9       12      14      0       0       1       29      
7       4       0       7       0       1       32      
7       10      9       0       0       1       32      
9       0       0       15      1       1       32      
0       0       0       0       0       0       
